33D32945 STP File, STP Format Version 1.0

SECTION Comments
Name "edge_n15_d3_s3"
Problem "Euclidean Steiner Tree Problem"
Remark "Generated with STPGenerator. 3 dimensions."
END

SECTION Graph
Nodes 15
END

SECTION Coordinates
DDD 0 0.5613801752 0.5613801752 0.5613801752
DDD 1 0.2249833128 0.2249833128 0.2249833128
DDD 2 0.3930917794 0.3930917794 0.3930917794
DDD 3 0.4439383934 0.4439383934 0.4439383934
DDD 4 0.2850412509 0.2850412509 0.2850412509
DDD 5 0.1447810513 0.1447810513 0.1447810513
DDD 6 0.5635544996 0.5635544996 0.5635544996
DDD 7 0.8646787037 0.8646787037 0.8646787037
DDD 8 0.8954018363 0.8954018363 0.8954018363
DDD 9 0.2308046744 0.2308046744 0.2308046744
DDD 10 0.0040116059 0.0040116059 0.0040116059
DDD 11 0.4605808875 0.4605808875 0.4605808875
DDD 12 0.1763232952 0.1763232952 0.1763232952
DDD 13 0.6261662299 0.6261662299 0.6261662299
DDD 14 0.9448735988 0.9448735988 0.9448735988
END
